1449
5262
8706
6679
8457
3839
594
6273
4472
610
7399
6685
7871
4076
9563
1262
2334
2524
6568
8984
8825
7011
4491
1619
4319
5754
7197
6669
9185
6023
3401
4748
1612
1636
880
4040
9137
7150
2300
4010
7875
7906
3600
8106
1823
845
2978
1842
7149
8811
694
